Minimize
  n_fork_025_flop + cst_0_icmp_05_flop + icmp_0_fork_128_flop + cst_3_branch_113_flop + start_0_forkC_533_flop + cst_4_phi_n388_flop + branch_1_phi_19126_flop + branch_1_sink_1143_flop + branch_3_phi_n078_flop + branch_3_sink_2144_flop + branchC_5_forkC_940_flop + branchC_5_sink_4146_flop + fork_0_icmp_04_flop + fork_0_branch_317_flop + fork_1_branch_114_flop + fork_1_branch_318_flop + fork_1_branchC_522_flop + fork_1_phi_19125_flop + forkC_5_cst_02_flop + forkC_5_cst_37_flop + forkC_5_cst_411_flop + forkC_5_branchC_521_flop + cst_1_phi_345_flop + forkC_9_cst_138_flop + forkC_9_phiC_182_flop + load_6_MC_feature137_flop + load_9_MC_weight140_flop + load_12_LSQ_hist132_flop + store_0_LSQ_hist133_flop + store_0_LSQ_hist134_flop + forkC_0_LSQ_hist131_flop + branch_0_phi_19127_flop + branch_4_sink_3145_flop + branchC_7_sink_5147_flop + phi_19_ret_0129_flop + ret_0_end_0151_flop + LSQ_hist_load_1255_flop + LSQ_hist_end_0148_flop + MC_feature_load_647_flop + MC_feature_end_0149_flop + MC_weight_load_951_flop + MC_weight_end_0150_flop
Subject to
  timePath_n_out1 <= 4
  timePath_fork_0_in1 <= 4
  8 n_fork_025_flop - timePath_n_out1 + timePath_fork_0_in1 >= 0
  timePath_cst_0_out1 <= 4
  timePath_icmp_0_in2 <= 4
  8 cst_0_icmp_05_flop - timePath_cst_0_out1 + timePath_icmp_0_in2 >= 0
  timePath_icmp_0_out1 <= 4
  timePath_fork_1_in1 <= 4
  8 icmp_0_fork_128_flop - timePath_icmp_0_out1 + timePath_fork_1_in1 >= 0
  timePath_cst_3_out1 <= 4
  timePath_branch_1_in1 <= 4
  8 cst_3_branch_113_flop - timePath_cst_3_out1 + timePath_branch_1_in1 >= 0
  timePath_start_0_out1 <= 4
  timePath_forkC_5_in1 <= 4
  8 start_0_forkC_533_flop - timePath_start_0_out1 + timePath_forkC_5_in1 >= 0
  timePath_cst_4_out1 <= 4
  timePath_phi_n3_in1 <= 4
  8 cst_4_phi_n388_flop - timePath_cst_4_out1 + timePath_phi_n3_in1 >= 0
  timePath_branch_1_out2 <= 4
  timePath_phi_19_in2 <= 4
  8 branch_1_phi_19126_flop - timePath_branch_1_out2 + timePath_phi_19_in2 >= 0
  timePath_branch_1_out1 <= 4
  timePath_sink_1_in1 <= 4
  8 branch_1_sink_1143_flop - timePath_branch_1_out1 + timePath_sink_1_in1 >= 0
  timePath_branch_3_out2 <= 4
  timePath_phi_n0_in3 <= 4
  8 branch_3_phi_n078_flop - timePath_branch_3_out2 + timePath_phi_n0_in3 >= 0
  timePath_branch_3_out1 <= 4
  timePath_sink_2_in1 <= 4
  8 branch_3_sink_2144_flop - timePath_branch_3_out1 + timePath_sink_2_in1 >= 0
  timePath_branchC_5_out2 <= 4
  timePath_forkC_9_in1 <= 4
  8 branchC_5_forkC_940_flop - timePath_branchC_5_out2 + timePath_forkC_9_in1 >= 0
  timePath_branchC_5_out1 <= 4
  timePath_sink_4_in1 <= 4
  8 branchC_5_sink_4146_flop - timePath_branchC_5_out1 + timePath_sink_4_in1 >= 0
  timePath_fork_0_out1 <= 4
  timePath_icmp_0_in1 <= 4
  8 fork_0_icmp_04_flop + timePath_icmp_0_in1 - timePath_fork_0_out1 >= 0
  timePath_fork_0_out2 <= 4
  timePath_branch_3_in1 <= 4
  8 fork_0_branch_317_flop + timePath_branch_3_in1 - timePath_fork_0_out2 >= 0
  timePath_fork_1_out1 <= 4
  timePath_branch_1_in2 <= 4
  8 fork_1_branch_114_flop + timePath_branch_1_in2 - timePath_fork_1_out1 >= 0
  timePath_fork_1_out2 <= 4
  timePath_branch_3_in2 <= 4
  8 fork_1_branch_318_flop + timePath_branch_3_in2 - timePath_fork_1_out2 >= 0
  timePath_fork_1_out3 <= 4
  timePath_branchC_5_in2 <= 4
  8 fork_1_branchC_522_flop + timePath_branchC_5_in2 - timePath_fork_1_out3 >= 0
  timePath_fork_1_out4 <= 4
  timePath_phi_19_in1 <= 4
  8 fork_1_phi_19125_flop - timePath_fork_1_out4 + timePath_phi_19_in1 >= 0
  timePath_forkC_5_out1 <= 4
  timePath_cst_0_in1 <= 4
  8 forkC_5_cst_02_flop + timePath_cst_0_in1 - timePath_forkC_5_out1 >= 0
  timePath_forkC_5_out3 <= 4
  timePath_cst_3_in1 <= 4
  8 forkC_5_cst_37_flop + timePath_cst_3_in1 - timePath_forkC_5_out3 >= 0
  timePath_forkC_5_out4 <= 4
  timePath_cst_4_in1 <= 4
  8 forkC_5_cst_411_flop + timePath_cst_4_in1 - timePath_forkC_5_out4 >= 0
  timePath_forkC_5_out2 <= 4
  timePath_branchC_5_in1 <= 4
  8 forkC_5_branchC_521_flop + timePath_branchC_5_in1 - timePath_forkC_5_out2 >= 0
  timePath_cst_1_out1 <= 4
  timePath_phi_3_in3 <= 4
  8 cst_1_phi_345_flop - timePath_cst_1_out1 + timePath_phi_3_in3 >= 0
  timePath_forkC_9_out1 <= 4
  timePath_cst_1_in1 <= 4
  8 forkC_9_cst_138_flop + timePath_cst_1_in1 - timePath_forkC_9_out1 >= 0
  timePath_forkC_9_out2 <= 4
  timePath_phiC_1_in3 <= 4
  8 forkC_9_phiC_182_flop - timePath_forkC_9_out2 + timePath_phiC_1_in3 >= 0
  timePath_phi_3_out1 <= 4
  timePath_fork_2_in1 <= 4
  -timePath_phi_3_out1 + timePath_fork_2_in1 >= -8
  timePath_load_6_out1 <= 4
  timePath_fork_10_in1 <= 4
  -timePath_load_6_out1 + timePath_fork_10_in1 >= -0
  timePath_load_9_out1 <= 4
  timePath_add_13_in2 <= 4
  -timePath_load_9_out1 + timePath_add_13_in2 >= -0
  timePath_load_12_out1 <= 4
  timePath_add_13_in1 <= 4
  -timePath_load_12_out1 + timePath_add_13_in1 >= -0
  timePath_add_13_out1 <= 4
  timePath_store_0_in1 <= 4
  -timePath_add_13_out1 + timePath_store_0_in1 >= -0
  timePath_cst_2_out1 <= 4
  timePath_add_16_in2 <= 4
  -timePath_cst_2_out1 + timePath_add_16_in2 >= -0
  timePath_add_16_out1 <= 4
  timePath_fork_3_in1 <= 4
  -timePath_add_16_out1 + timePath_fork_3_in1 >= -0
  timePath_icmp_17_out1 <= 4
  timePath_fork_4_in1 <= 4
  -timePath_icmp_17_out1 + timePath_fork_4_in1 >= -0
  timePath_phi_n0_out1 <= 4
  timePath_fork_6_in1 <= 4
  -timePath_phi_n0_out1 + timePath_fork_6_in1 >= -8
  timePath_phiC_1_out1 <= 4
  timePath_forkC_7_in1 <= 4
  -timePath_phiC_1_out1 + timePath_forkC_7_in1 >= -8
  timePath_branch_0_out2 <= 4
  timePath_phi_3_in2 <= 4
  timePath_phi_3_in2 - timePath_branch_0_out2 >= -0
  timePath_branch_0_out1 <= 4
  timePath_phi_19_in3 <= 4
  8 branch_0_phi_19127_flop - timePath_branch_0_out1 + timePath_phi_19_in3 >= 0
  timePath_phi_n3_out1 <= 4
  timePath_fork_8_in1 <= 4
  -timePath_phi_n3_out1 + timePath_fork_8_in1 >= -0
  timePath_branch_4_out2 <= 4
  timePath_phi_n0_in2 <= 4
  timePath_phi_n0_in2 - timePath_branch_4_out2 >= -0
  timePath_branch_4_out1 <= 4
  timePath_sink_3_in1 <= 4
  8 branch_4_sink_3145_flop - timePath_branch_4_out1 + timePath_sink_3_in1 >= 0
  timePath_branchC_7_out2 <= 4
  timePath_phiC_1_in2 <= 4
  timePath_phiC_1_in2 - timePath_branchC_7_out2 >= -0
  timePath_branchC_7_out1 <= 4
  timePath_sink_5_in1 <= 4
  8 branchC_7_sink_5147_flop - timePath_branchC_7_out1 + timePath_sink_5_in1 >= 0
  timePath_fork_2_out2 <= 4
  timePath_load_6_in2 <= 4
  timePath_load_6_in2 - timePath_fork_2_out2 >= -0
  timePath_fork_2_out3 <= 4
  timePath_load_9_in2 <= 4
  timePath_load_9_in2 - timePath_fork_2_out3 >= -0
  timePath_fork_2_out1 <= 4
  timePath_add_16_in1 <= 4
  timePath_add_16_in1 - timePath_fork_2_out1 >= -0
  timePath_fork_3_out1 <= 4
  timePath_icmp_17_in1 <= 4
  timePath_icmp_17_in1 - timePath_fork_3_out1 >= -0
  timePath_fork_3_out2 <= 4
  timePath_branch_0_in1 <= 4
  timePath_branch_0_in1 - timePath_fork_3_out2 >= -0
  timePath_fork_4_out1 <= 4
  timePath_branch_0_in2 <= 4
  timePath_branch_0_in2 - timePath_fork_4_out1 >= -0
  timePath_fork_4_out2 <= 4
  timePath_phi_n3_in2 <= 4
  timePath_phi_n3_in2 - timePath_fork_4_out2 >= -0
  timePath_fork_4_out3 <= 4
  timePath_branch_4_in2 <= 4
  timePath_branch_4_in2 - timePath_fork_4_out3 >= -0
  timePath_fork_4_out4 <= 4
  timePath_branchC_7_in2 <= 4
  timePath_branchC_7_in2 - timePath_fork_4_out4 >= -0
  timePath_fork_6_out1 <= 4
  timePath_icmp_17_in2 <= 4
  timePath_icmp_17_in2 - timePath_fork_6_out1 >= -0
  timePath_fork_6_out2 <= 4
  timePath_branch_4_in1 <= 4
  timePath_branch_4_in1 - timePath_fork_6_out2 >= -0
  timePath_forkC_7_out1 <= 4
  timePath_cst_2_in1 <= 4
  timePath_cst_2_in1 - timePath_forkC_7_out1 >= -0
  timePath_forkC_7_out3 <= 4
  timePath_forkC_0_in1 <= 4
  timePath_forkC_0_in1 - timePath_forkC_7_out3 >= -0
  timePath_forkC_7_out2 <= 4
  timePath_branchC_7_in1 <= 4
  timePath_branchC_7_in1 - timePath_forkC_7_out2 >= -0
  timePath_fork_8_out1 <= 4
  timePath_phi_3_in1 <= 4
  timePath_phi_3_in1 - timePath_fork_8_out1 >= -0
  timePath_fork_8_out2 <= 4
  timePath_phi_n0_in1 <= 4
  timePath_phi_n0_in1 - timePath_fork_8_out2 >= -0
  timePath_fork_8_out3 <= 4
  timePath_phiC_1_in1 <= 4
  timePath_phiC_1_in1 - timePath_fork_8_out3 >= -0
  timePath_fork_10_out1 <= 4
  timePath_load_12_in2 <= 4
  timePath_load_12_in2 - timePath_fork_10_out1 >= -0
  timePath_fork_10_out2 <= 4
  timePath_store_0_in2 <= 4
  timePath_store_0_in2 - timePath_fork_10_out2 >= -0
  timePath_phi_19_out1 <= 4
  timePath_ret_0_in1 <= 4
  8 phi_19_ret_0129_flop - timePath_phi_19_out1 + timePath_ret_0_in1 >= 0
  timePath_ret_0_out1 <= 4
  timePath_end_0_in4 <= 4
  8 ret_0_end_0151_flop - timePath_ret_0_out1 + timePath_end_0_in4 >= 0
  -timePath_cst_0_in1 + timePath_cst_0_out1 >= 0
  -timePath_icmp_0_in1 + timePath_icmp_0_out1 >= 1.53
  -timePath_icmp_0_in2 + timePath_icmp_0_out1 >= 1.53
  -timePath_cst_3_in1 + timePath_cst_3_out1 >= 0
  -timePath_cst_4_in1 + timePath_cst_4_out1 >= 0
  -timePath_branch_1_in1 + timePath_branch_1_out1 >= 0
  -timePath_branch_1_in2 + timePath_branch_1_out1 >= 0
  -timePath_branch_1_in1 + timePath_branch_1_out2 >= 0
  -timePath_branch_1_in2 + timePath_branch_1_out2 >= 0
  -timePath_branch_3_in1 + timePath_branch_3_out1 >= 0
  -timePath_branch_3_in2 + timePath_branch_3_out1 >= 0
  -timePath_branch_3_in1 + timePath_branch_3_out2 >= 0
  -timePath_branch_3_in2 + timePath_branch_3_out2 >= 0
  -timePath_branchC_5_in1 + timePath_branchC_5_out1 >= 0
  -timePath_branchC_5_in2 + timePath_branchC_5_out1 >= 0
  -timePath_branchC_5_in1 + timePath_branchC_5_out2 >= 0
  -timePath_branchC_5_in2 + timePath_branchC_5_out2 >= 0
  -timePath_fork_0_in1 + timePath_fork_0_out1 >= 0
  -timePath_fork_0_in1 + timePath_fork_0_out2 >= 0
  -timePath_fork_1_in1 + timePath_fork_1_out1 >= 0
  -timePath_fork_1_in1 + timePath_fork_1_out2 >= 0
  -timePath_fork_1_in1 + timePath_fork_1_out3 >= 0
  -timePath_fork_1_in1 + timePath_fork_1_out4 >= 0
  -timePath_forkC_5_in1 + timePath_forkC_5_out1 >= 0
  -timePath_forkC_5_in1 + timePath_forkC_5_out2 >= 0
  -timePath_forkC_5_in1 + timePath_forkC_5_out3 >= 0
  -timePath_forkC_5_in1 + timePath_forkC_5_out4 >= 0
  -timePath_cst_1_in1 + timePath_cst_1_out1 >= 0
  -timePath_forkC_9_in1 + timePath_forkC_9_out1 >= 0
  -timePath_forkC_9_in1 + timePath_forkC_9_out2 >= 0
  -timePath_phi_3_in1 + timePath_phi_3_out1 >= 0.366
  -timePath_phi_3_in2 + timePath_phi_3_out1 >= 0.366
  -timePath_phi_3_in3 + timePath_phi_3_out1 >= 0.366
  timePath_load_6_out1 = 0
  timePath_load_6_out2 = 0
  timePath_load_6_in1 <= 4
  timePath_load_6_in2 <= 4
  timePath_load_9_out1 = 0
  timePath_load_9_out2 = 0
  timePath_load_9_in1 <= 4
  timePath_load_9_in2 <= 4
  timePath_load_12_out1 = 0
  timePath_load_12_out2 = 0
  timePath_load_12_in1 <= 4
  timePath_load_12_in2 <= 4
  -timePath_add_13_in1 + timePath_add_13_out1 >= 1.693
  -timePath_add_13_in2 + timePath_add_13_out1 >= 1.693
  -timePath_store_0_in1 + timePath_store_0_out1 >= 0
  -timePath_store_0_in2 + timePath_store_0_out1 >= 0
  -timePath_store_0_in1 + timePath_store_0_out2 >= 0
  -timePath_store_0_in2 + timePath_store_0_out2 >= 0
  -timePath_cst_2_in1 + timePath_cst_2_out1 >= 0
  -timePath_add_16_in1 + timePath_add_16_out1 >= 1.693
  -timePath_add_16_in2 + timePath_add_16_out1 >= 1.693
  -timePath_icmp_17_in1 + timePath_icmp_17_out1 >= 1.53
  -timePath_icmp_17_in2 + timePath_icmp_17_out1 >= 1.53
  -timePath_forkC_0_in1 + timePath_forkC_0_out1 >= 0
  -timePath_phi_n0_in1 + timePath_phi_n0_out1 >= 0.366
  -timePath_phi_n0_in2 + timePath_phi_n0_out1 >= 0.366
  -timePath_phi_n0_in3 + timePath_phi_n0_out1 >= 0.366
  -timePath_phiC_1_in1 + timePath_phiC_1_out1 >= 0.166
  -timePath_phiC_1_in2 + timePath_phiC_1_out1 >= 0.166
  -timePath_phiC_1_in3 + timePath_phiC_1_out1 >= 0.166
  -timePath_branch_0_in1 + timePath_branch_0_out1 >= 0
  -timePath_branch_0_in2 + timePath_branch_0_out1 >= 0
  -timePath_branch_0_in1 + timePath_branch_0_out2 >= 0
  -timePath_branch_0_in2 + timePath_branch_0_out2 >= 0
  -timePath_phi_n3_in1 + timePath_phi_n3_out1 >= 0.366
  -timePath_phi_n3_in2 + timePath_phi_n3_out1 >= 0.366
  -timePath_branch_4_in1 + timePath_branch_4_out1 >= 0
  -timePath_branch_4_in2 + timePath_branch_4_out1 >= 0
  -timePath_branch_4_in1 + timePath_branch_4_out2 >= 0
  -timePath_branch_4_in2 + timePath_branch_4_out2 >= 0
  -timePath_branchC_7_in1 + timePath_branchC_7_out1 >= 0
  -timePath_branchC_7_in2 + timePath_branchC_7_out1 >= 0
  -timePath_branchC_7_in1 + timePath_branchC_7_out2 >= 0
  -timePath_branchC_7_in2 + timePath_branchC_7_out2 >= 0
  -timePath_fork_2_in1 + timePath_fork_2_out1 >= 0
  -timePath_fork_2_in1 + timePath_fork_2_out2 >= 0
  -timePath_fork_2_in1 + timePath_fork_2_out3 >= 0
  -timePath_fork_3_in1 + timePath_fork_3_out1 >= 0
  -timePath_fork_3_in1 + timePath_fork_3_out2 >= 0
  -timePath_fork_4_in1 + timePath_fork_4_out1 >= 0
  -timePath_fork_4_in1 + timePath_fork_4_out2 >= 0
  -timePath_fork_4_in1 + timePath_fork_4_out3 >= 0
  -timePath_fork_4_in1 + timePath_fork_4_out4 >= 0
  -timePath_fork_6_in1 + timePath_fork_6_out1 >= 0
  -timePath_fork_6_in1 + timePath_fork_6_out2 >= 0
  -timePath_forkC_7_in1 + timePath_forkC_7_out1 >= 0
  -timePath_forkC_7_in1 + timePath_forkC_7_out2 >= 0
  -timePath_forkC_7_in1 + timePath_forkC_7_out3 >= 0
  -timePath_fork_8_in1 + timePath_fork_8_out1 >= 0
  -timePath_fork_8_in1 + timePath_fork_8_out2 >= 0
  -timePath_fork_8_in1 + timePath_fork_8_out3 >= 0
  -timePath_fork_10_in1 + timePath_fork_10_out1 >= 0
  -timePath_fork_10_in1 + timePath_fork_10_out2 >= 0
  -timePath_phi_19_in1 + timePath_phi_19_out1 >= 0.366
  -timePath_phi_19_in2 + timePath_phi_19_out1 >= 0.366
  -timePath_phi_19_in3 + timePath_phi_19_out1 >= 0.366
  -timePath_ret_0_in1 + timePath_ret_0_out1 >= 0
  -timePath_LSQ_hist_in1 + timePath_LSQ_hist_out1 >= 0
  -timePath_LSQ_hist_in2 + timePath_LSQ_hist_out1 >= 0
  -timePath_LSQ_hist_in3 + timePath_LSQ_hist_out1 >= 0
  -timePath_LSQ_hist_in4 + timePath_LSQ_hist_out1 >= 0
  -timePath_LSQ_hist_in1 + timePath_LSQ_hist_out2 >= 0
  -timePath_LSQ_hist_in2 + timePath_LSQ_hist_out2 >= 0
  -timePath_LSQ_hist_in3 + timePath_LSQ_hist_out2 >= 0
  -timePath_LSQ_hist_in4 + timePath_LSQ_hist_out2 >= 0
  -timePath_MC_feature_in1 + timePath_MC_feature_out1 >= 0
  -timePath_MC_feature_in1 + timePath_MC_feature_out2 >= 0
  -timePath_MC_weight_in1 + timePath_MC_weight_out1 >= 0
  -timePath_MC_weight_in1 + timePath_MC_weight_out2 >= 0
  49 n_fork_025_flop - timeElastic_n_out1 + timeElastic_fork_0_in1 >= 0
  49 cst_0_icmp_05_flop - timeElastic_cst_0_out1 + timeElastic_icmp_0_in2 >= 0
  49 icmp_0_fork_128_flop - timeElastic_icmp_0_out1 + timeElastic_fork_1_in1 >= 0
  49 cst_3_branch_113_flop - timeElastic_cst_3_out1 + timeElastic_branch_1_in1 >= 0
  49 start_0_forkC_533_flop - timeElastic_start_0_out1 + timeElastic_forkC_5_in1 >= 0
  49 cst_4_phi_n388_flop - timeElastic_cst_4_out1 + timeElastic_phi_n3_in1 >= 0
  49 branch_1_phi_19126_flop - timeElastic_branch_1_out2 + timeElastic_phi_19_in2 >= 0
  49 branch_1_sink_1143_flop - timeElastic_branch_1_out1 + timeElastic_sink_1_in1 >= 0
  49 branch_3_phi_n078_flop - timeElastic_branch_3_out2 + timeElastic_phi_n0_in3 >= 0
  49 branch_3_sink_2144_flop - timeElastic_branch_3_out1 + timeElastic_sink_2_in1 >= 0
  49 branchC_5_forkC_940_flop - timeElastic_branchC_5_out2 + timeElastic_forkC_9_in1 >= 0
  49 branchC_5_sink_4146_flop - timeElastic_branchC_5_out1 + timeElastic_sink_4_in1 >= 0
  49 fork_0_icmp_04_flop + timeElastic_icmp_0_in1 - timeElastic_fork_0_out1 >= 0
  49 fork_0_branch_317_flop + timeElastic_branch_3_in1 - timeElastic_fork_0_out2 >= 0
  49 fork_1_branch_114_flop + timeElastic_branch_1_in2 - timeElastic_fork_1_out1 >= 0
  49 fork_1_branch_318_flop + timeElastic_branch_3_in2 - timeElastic_fork_1_out2 >= 0
  49 fork_1_branchC_522_flop + timeElastic_branchC_5_in2 - timeElastic_fork_1_out3 >= 0
  49 fork_1_phi_19125_flop - timeElastic_fork_1_out4 + timeElastic_phi_19_in1 >= 0
  49 forkC_5_cst_02_flop + timeElastic_cst_0_in1 - timeElastic_forkC_5_out1 >= 0
  49 forkC_5_cst_37_flop + timeElastic_cst_3_in1 - timeElastic_forkC_5_out3 >= 0
  49 forkC_5_cst_411_flop + timeElastic_cst_4_in1 - timeElastic_forkC_5_out4 >= 0
  49 forkC_5_branchC_521_flop + timeElastic_branchC_5_in1 - timeElastic_forkC_5_out2 >= 0
  49 cst_1_phi_345_flop - timeElastic_cst_1_out1 + timeElastic_phi_3_in3 >= 0
  49 forkC_9_cst_138_flop + timeElastic_cst_1_in1 - timeElastic_forkC_9_out1 >= 0
  49 forkC_9_phiC_182_flop - timeElastic_forkC_9_out2 + timeElastic_phiC_1_in3 >= 0
  -timeElastic_phi_3_out1 + timeElastic_fork_2_in1 >= -49
  -timeElastic_load_6_out1 + timeElastic_fork_10_in1 >= -0
  -timeElastic_load_9_out1 + timeElastic_add_13_in2 >= -0
  -timeElastic_load_12_out1 + timeElastic_add_13_in1 >= -0
  -timeElastic_add_13_out1 + timeElastic_store_0_in1 >= -0
  -timeElastic_cst_2_out1 + timeElastic_add_16_in2 >= -0
  -timeElastic_add_16_out1 + timeElastic_fork_3_in1 >= -0
  -timeElastic_icmp_17_out1 + timeElastic_fork_4_in1 >= -0
  -timeElastic_phi_n0_out1 + timeElastic_fork_6_in1 >= -49
  -timeElastic_phiC_1_out1 + timeElastic_forkC_7_in1 >= -49
  timeElastic_phi_3_in2 - timeElastic_branch_0_out2 >= -0
  49 branch_0_phi_19127_flop - timeElastic_branch_0_out1 + timeElastic_phi_19_in3 >= 0
  -timeElastic_phi_n3_out1 + timeElastic_fork_8_in1 >= -0
  timeElastic_phi_n0_in2 - timeElastic_branch_4_out2 >= -0
  49 branch_4_sink_3145_flop - timeElastic_branch_4_out1 + timeElastic_sink_3_in1 >= 0
  timeElastic_phiC_1_in2 - timeElastic_branchC_7_out2 >= -0
  49 branchC_7_sink_5147_flop - timeElastic_branchC_7_out1 + timeElastic_sink_5_in1 >= 0
  timeElastic_load_6_in2 - timeElastic_fork_2_out2 >= -0
  timeElastic_load_9_in2 - timeElastic_fork_2_out3 >= -0
  timeElastic_add_16_in1 - timeElastic_fork_2_out1 >= -0
  timeElastic_icmp_17_in1 - timeElastic_fork_3_out1 >= -0
  timeElastic_branch_0_in1 - timeElastic_fork_3_out2 >= -0
  timeElastic_branch_0_in2 - timeElastic_fork_4_out1 >= -0
  timeElastic_phi_n3_in2 - timeElastic_fork_4_out2 >= -0
  timeElastic_branch_4_in2 - timeElastic_fork_4_out3 >= -0
  timeElastic_branchC_7_in2 - timeElastic_fork_4_out4 >= -0
  timeElastic_icmp_17_in2 - timeElastic_fork_6_out1 >= -0
  timeElastic_branch_4_in1 - timeElastic_fork_6_out2 >= -0
  timeElastic_cst_2_in1 - timeElastic_forkC_7_out1 >= -0
  timeElastic_forkC_0_in1 - timeElastic_forkC_7_out3 >= -0
  timeElastic_branchC_7_in1 - timeElastic_forkC_7_out2 >= -0
  timeElastic_phi_3_in1 - timeElastic_fork_8_out1 >= -0
  timeElastic_phi_n0_in1 - timeElastic_fork_8_out2 >= -0
  timeElastic_phiC_1_in1 - timeElastic_fork_8_out3 >= -0
  timeElastic_load_12_in2 - timeElastic_fork_10_out1 >= -0
  timeElastic_store_0_in2 - timeElastic_fork_10_out2 >= -0
  49 phi_19_ret_0129_flop - timeElastic_phi_19_out1 + timeElastic_ret_0_in1 >= 0
  49 ret_0_end_0151_flop - timeElastic_ret_0_out1 + timeElastic_end_0_in4 >= 0
  -timeElastic_cst_0_in1 + timeElastic_cst_0_out1 >= 1
  -timeElastic_icmp_0_in1 + timeElastic_icmp_0_out1 >= 1
  -timeElastic_icmp_0_in2 + timeElastic_icmp_0_out1 >= 1
  -timeElastic_cst_3_in1 + timeElastic_cst_3_out1 >= 1
  -timeElastic_cst_4_in1 + timeElastic_cst_4_out1 >= 1
  -timeElastic_branch_1_in1 + timeElastic_branch_1_out1 >= 1
  -timeElastic_branch_1_in2 + timeElastic_branch_1_out1 >= 1
  -timeElastic_branch_1_in1 + timeElastic_branch_1_out2 >= 1
  -timeElastic_branch_1_in2 + timeElastic_branch_1_out2 >= 1
  -timeElastic_branch_3_in1 + timeElastic_branch_3_out1 >= 1
  -timeElastic_branch_3_in2 + timeElastic_branch_3_out1 >= 1
  -timeElastic_branch_3_in1 + timeElastic_branch_3_out2 >= 1
  -timeElastic_branch_3_in2 + timeElastic_branch_3_out2 >= 1
  -timeElastic_branchC_5_in1 + timeElastic_branchC_5_out1 >= 1
  -timeElastic_branchC_5_in2 + timeElastic_branchC_5_out1 >= 1
  -timeElastic_branchC_5_in1 + timeElastic_branchC_5_out2 >= 1
  -timeElastic_branchC_5_in2 + timeElastic_branchC_5_out2 >= 1
  -timeElastic_fork_0_in1 + timeElastic_fork_0_out1 >= 1
  -timeElastic_fork_0_in1 + timeElastic_fork_0_out2 >= 1
  -timeElastic_fork_1_in1 + timeElastic_fork_1_out1 >= 1
  -timeElastic_fork_1_in1 + timeElastic_fork_1_out2 >= 1
  -timeElastic_fork_1_in1 + timeElastic_fork_1_out3 >= 1
  -timeElastic_fork_1_in1 + timeElastic_fork_1_out4 >= 1
  -timeElastic_forkC_5_in1 + timeElastic_forkC_5_out1 >= 1
  -timeElastic_forkC_5_in1 + timeElastic_forkC_5_out2 >= 1
  -timeElastic_forkC_5_in1 + timeElastic_forkC_5_out3 >= 1
  -timeElastic_forkC_5_in1 + timeElastic_forkC_5_out4 >= 1
  -timeElastic_cst_1_in1 + timeElastic_cst_1_out1 >= 1
  -timeElastic_forkC_9_in1 + timeElastic_forkC_9_out1 >= 1
  -timeElastic_forkC_9_in1 + timeElastic_forkC_9_out2 >= 1
  -timeElastic_phi_3_in1 + timeElastic_phi_3_out1 >= 1
  -timeElastic_phi_3_in2 + timeElastic_phi_3_out1 >= 1
  -timeElastic_phi_3_in3 + timeElastic_phi_3_out1 >= 1
  -timeElastic_load_6_in1 + timeElastic_load_6_out1 >= 1
  -timeElastic_load_6_in2 + timeElastic_load_6_out1 >= 1
  -timeElastic_load_6_in1 + timeElastic_load_6_out2 >= 1
  -timeElastic_load_6_in2 + timeElastic_load_6_out2 >= 1
  -timeElastic_load_9_in1 + timeElastic_load_9_out1 >= 1
  -timeElastic_load_9_in2 + timeElastic_load_9_out1 >= 1
  -timeElastic_load_9_in1 + timeElastic_load_9_out2 >= 1
  -timeElastic_load_9_in2 + timeElastic_load_9_out2 >= 1
  -timeElastic_load_12_in1 + timeElastic_load_12_out1 >= 1
  -timeElastic_load_12_in2 + timeElastic_load_12_out1 >= 1
  -timeElastic_load_12_in1 + timeElastic_load_12_out2 >= 1
  -timeElastic_load_12_in2 + timeElastic_load_12_out2 >= 1
  -timeElastic_add_13_in1 + timeElastic_add_13_out1 >= 1
  -timeElastic_add_13_in2 + timeElastic_add_13_out1 >= 1
  -timeElastic_store_0_in1 + timeElastic_store_0_out1 >= 1
  -timeElastic_store_0_in2 + timeElastic_store_0_out1 >= 1
  -timeElastic_store_0_in1 + timeElastic_store_0_out2 >= 1
  -timeElastic_store_0_in2 + timeElastic_store_0_out2 >= 1
  -timeElastic_cst_2_in1 + timeElastic_cst_2_out1 >= 1
  -timeElastic_add_16_in1 + timeElastic_add_16_out1 >= 1
  -timeElastic_add_16_in2 + timeElastic_add_16_out1 >= 1
  -timeElastic_icmp_17_in1 + timeElastic_icmp_17_out1 >= 1
  -timeElastic_icmp_17_in2 + timeElastic_icmp_17_out1 >= 1
  -timeElastic_forkC_0_in1 + timeElastic_forkC_0_out1 >= 1
  -timeElastic_phi_n0_in1 + timeElastic_phi_n0_out1 >= 1
  -timeElastic_phi_n0_in2 + timeElastic_phi_n0_out1 >= 1
  -timeElastic_phi_n0_in3 + timeElastic_phi_n0_out1 >= 1
  -timeElastic_phiC_1_in1 + timeElastic_phiC_1_out1 >= 1
  -timeElastic_phiC_1_in2 + timeElastic_phiC_1_out1 >= 1
  -timeElastic_phiC_1_in3 + timeElastic_phiC_1_out1 >= 1
  -timeElastic_branch_0_in1 + timeElastic_branch_0_out1 >= 1
  -timeElastic_branch_0_in2 + timeElastic_branch_0_out1 >= 1
  -timeElastic_branch_0_in1 + timeElastic_branch_0_out2 >= 1
  -timeElastic_branch_0_in2 + timeElastic_branch_0_out2 >= 1
  -timeElastic_phi_n3_in1 + timeElastic_phi_n3_out1 >= 1
  -timeElastic_phi_n3_in2 + timeElastic_phi_n3_out1 >= 1
  -timeElastic_branch_4_in1 + timeElastic_branch_4_out1 >= 1
  -timeElastic_branch_4_in2 + timeElastic_branch_4_out1 >= 1
  -timeElastic_branch_4_in1 + timeElastic_branch_4_out2 >= 1
  -timeElastic_branch_4_in2 + timeElastic_branch_4_out2 >= 1
  -timeElastic_branchC_7_in1 + timeElastic_branchC_7_out1 >= 1
  -timeElastic_branchC_7_in2 + timeElastic_branchC_7_out1 >= 1
  -timeElastic_branchC_7_in1 + timeElastic_branchC_7_out2 >= 1
  -timeElastic_branchC_7_in2 + timeElastic_branchC_7_out2 >= 1
  -timeElastic_fork_2_in1 + timeElastic_fork_2_out1 >= 1
  -timeElastic_fork_2_in1 + timeElastic_fork_2_out2 >= 1
  -timeElastic_fork_2_in1 + timeElastic_fork_2_out3 >= 1
  -timeElastic_fork_3_in1 + timeElastic_fork_3_out1 >= 1
  -timeElastic_fork_3_in1 + timeElastic_fork_3_out2 >= 1
  -timeElastic_fork_4_in1 + timeElastic_fork_4_out1 >= 1
  -timeElastic_fork_4_in1 + timeElastic_fork_4_out2 >= 1
  -timeElastic_fork_4_in1 + timeElastic_fork_4_out3 >= 1
  -timeElastic_fork_4_in1 + timeElastic_fork_4_out4 >= 1
  -timeElastic_fork_6_in1 + timeElastic_fork_6_out1 >= 1
  -timeElastic_fork_6_in1 + timeElastic_fork_6_out2 >= 1
  -timeElastic_forkC_7_in1 + timeElastic_forkC_7_out1 >= 1
  -timeElastic_forkC_7_in1 + timeElastic_forkC_7_out2 >= 1
  -timeElastic_forkC_7_in1 + timeElastic_forkC_7_out3 >= 1
  -timeElastic_fork_8_in1 + timeElastic_fork_8_out1 >= 1
  -timeElastic_fork_8_in1 + timeElastic_fork_8_out2 >= 1
  -timeElastic_fork_8_in1 + timeElastic_fork_8_out3 >= 1
  -timeElastic_fork_10_in1 + timeElastic_fork_10_out1 >= 1
  -timeElastic_fork_10_in1 + timeElastic_fork_10_out2 >= 1
  -timeElastic_phi_19_in1 + timeElastic_phi_19_out1 >= 1
  -timeElastic_phi_19_in2 + timeElastic_phi_19_out1 >= 1
  -timeElastic_phi_19_in3 + timeElastic_phi_19_out1 >= 1
  -timeElastic_ret_0_in1 + timeElastic_ret_0_out1 >= 1
  -timeElastic_LSQ_hist_in1 + timeElastic_LSQ_hist_out1 >= 1
  -timeElastic_LSQ_hist_in2 + timeElastic_LSQ_hist_out1 >= 1
  -timeElastic_LSQ_hist_in3 + timeElastic_LSQ_hist_out1 >= 1
  -timeElastic_LSQ_hist_in4 + timeElastic_LSQ_hist_out1 >= 1
  -timeElastic_LSQ_hist_in1 + timeElastic_LSQ_hist_out2 >= 1
  -timeElastic_LSQ_hist_in2 + timeElastic_LSQ_hist_out2 >= 1
  -timeElastic_LSQ_hist_in3 + timeElastic_LSQ_hist_out2 >= 1
  -timeElastic_LSQ_hist_in4 + timeElastic_LSQ_hist_out2 >= 1
  -timeElastic_MC_feature_in1 + timeElastic_MC_feature_out1 >= 1
  -timeElastic_MC_feature_in1 + timeElastic_MC_feature_out2 >= 1
  -timeElastic_MC_weight_in1 + timeElastic_MC_weight_out1 >= 1
  -timeElastic_MC_weight_in1 + timeElastic_MC_weight_out2 >= 1
Binary
  n_fork_025_flop cst_0_icmp_05_flop icmp_0_fork_128_flop cst_3_branch_113_flop start_0_forkC_533_flop cst_4_phi_n388_flop branch_1_phi_19126_flop branch_1_sink_1143_flop branch_3_phi_n078_flop branch_3_sink_2144_flop branchC_5_forkC_940_flop branchC_5_sink_4146_flop fork_0_icmp_04_flop fork_0_branch_317_flop fork_1_branch_114_flop fork_1_branch_318_flop fork_1_branchC_522_flop fork_1_phi_19125_flop forkC_5_cst_02_flop forkC_5_cst_37_flop forkC_5_cst_411_flop forkC_5_branchC_521_flop cst_1_phi_345_flop forkC_9_cst_138_flop forkC_9_phiC_182_flop load_6_MC_feature137_flop load_9_MC_weight140_flop load_12_LSQ_hist132_flop store_0_LSQ_hist133_flop store_0_LSQ_hist134_flop forkC_0_LSQ_hist131_flop branch_0_phi_19127_flop branch_4_sink_3145_flop branchC_7_sink_5147_flop phi_19_ret_0129_flop ret_0_end_0151_flop LSQ_hist_load_1255_flop LSQ_hist_end_0148_flop MC_feature_load_647_flop MC_feature_end_0149_flop MC_weight_load_951_flop MC_weight_end_0150_flop
End
